102
64
73
48
7
10
101
56
91
55
16
15
88
46
63
26
3
50
107
89
31
79
33
103
19
106
36
14
70
109
85
96
57
75
25
82
43
105
99
93
21
8
9
59
17
62
74
72
24
65
32
100
39
49
90
110
71
52
94
78
108
5
18
0
44
4
41
42
69
66
12
80
92
13
23
47
87
6
86
84
35
53
97
40
68
38
28
95
27
81
104
22
30
67
20
51
76
11
60
2
